<number of tasks>
45

<cycle time>
110

<task times>
1 9
2 9
3 10
4 10
5 17
6 17
7 13
8 13
9 20
10 20
11 10
12 11
13 6
14 22
15 11
16 19
17 12
18 3
19 7
20 4
21 55
22 14
23 27
24 29
25 26
26 6
27 5
28 24
29 4
30 5
31 7
32 4
33 15
34 3
35 7
36 9
37 4
38 7
39 5
40 4
41 21
42 12
43 6
44 5
45 5

<task process alternatives>
1: 8,15 ; 11,8
2: 8,15 ; 11,8
3: 8,15 ; 12,8
4: 8,15 ; 12,8
5: 14,15 ; 21,8
6: 14,15 ; 21,8
7: 11,15 ; 16,8
8: 11,15 ; 16,8
9: 16,15 ; 24,8
10: 16,15 ; 24,8
11: 8,15 ; 12,8
12: 9,15 ; 14,8
13: 5,15 ; 8,8
14: 18,15 ; 27,8
15: 9,15 ; 14,8
16: 16,15 ; 23,8
17: 10,15 ; 15,8
18: 3,15 ; 4,8
19: 6,15 ; 9,8
20: 4,15 ; 5,8
21: 44,15 ; 66,8
22: 12,15 ; 17,8
23: 22,15 ; 33,8
24: 24,15 ; 35,8
25: 21,15 ; 32,8
26: 5,15 ; 8,8
27: 4,15 ; 6,8
28: 20,15 ; 29,8
29: 4,15 ; 5,8
30: 4,15 ; 6,8
31: 6,15 ; 9,8
32: 4,15 ; 5,8
33: 12,15 ; 18,8
34: 3,15 ; 4,8
35: 6,15 ; 9,8
36: 8,15 ; 11,8
37: 4,15 ; 5,8
38: 6,15 ; 9,8
39: 4,15 ; 6,8
40: 4,15 ; 5,8
41: 17,15 ; 26,8
42: 10,15 ; 15,8
43: 5,15 ; 8,8
44: 4,15 ; 6,8
45: 4,15 ; 6,8

<incompatible tasks>
10,23
44,11
43,36
28,36
3,28
21,40

<precedence relations>
33,36
15,24
24,33
42,45
4,6
12,13
21,22
14,25
29,41
12,37
40,41
14,31
1,3
27,28
31,41
2,8
17,27
13,14
19,33
16,19
33,35
15,23
9,41
41,42
18,19
42,44
26,38
5,9
38,40
39,41
22,28
23,33
2,4
8,14
14,30
17,26
11,13
19,20
27,33
28,38
7,9
15,16
6,10
30,41
33,34
10,41
3,5
20,21
32,41
35,40
14,17
8,10
14,32
14,29
34,38
1,7
36,38
37,43
13,15
15,18
25,26
7,14

<number of task attributes>
1

<task attribute values>
1,1:70
2,1:6
4,1:69
5,1:28
6,1:2
7,1:1
8,1:18
9,1:48
10,1:47
11,1:3
13,1:1
17,1:4
21,1:5
22,1:27
25,1:54
26,1:42
28,1:42
29,1:81
31,1:15
32,1:11
33,1:9

<attribute bounds per station>
1:100

<incompatible tasks>
1,5
1,21
1,23
1,29
1,35
1,39
2,5
2,16
2,36
3,8
3,34
3,35
3,39
4,11
4,15
4,32
4,33
5,8
5,12
5,20
5,41
5,42
6,36
7,34
7,43
8,20
8,21
8,36
9,28
9,34
9,42
9,45
10,14
10,33
11,20
11,36
11,43
12,26
13,25
13,26
13,29
14,33
14,39
14,41
15,19
15,29
15,40
16,18
16,21
16,37
16,39
17,22
17,24
17,29
18,19
18,28
18,35
19,25
19,28
19,32
19,33
19,41
19,42
19,43
19,44
19,45
20,35
22,42
23,32
24,42
26,43
27,33
27,36
28,33
29,40
30,36
30,42
31,39
33,36
33,45
34,39
34,43
39,42
41,43

<optimal SALBP-1 value>
6

<rand seed>
236278236

<end>
